sat
(:binary-propagations  92
 :decisions            87
 :del-clause           46
 :final-checks         5
 :max-generation       1
 :max-memory           22.88
 :memory               20.82
 :mk-bool-var          230
 :mk-clause            67
 :mk-clause-binary     134
 :num-allocs           4332849
 :num-checks           1
 :propagations         133
 :quant-instantiations 46
 :restarts             4
 :rlimit-count         51019
 :time                 0.02)
